WARNING: for repeatability, setting FPU to use double precision
============================[ Problem Statistics ]=============================
|                                                                             |
|  Number of variables:        167970                                         |
|  Number of clauses:          999018                                         |
|  Parse time:                   0.28 s                                       |
|                                                                             |
c ============================[ Search Statistics ]==============================
c | Conflicts |          ORIGINAL         |          LEARNT          | Progress |
c |           |    Vars  Clauses Literals |    Limit  Clauses Lit/Cl |          |
c ===============================================================================
c Switched to VSIDS.
c Switched to LRB.
c Switched to VSIDS.
c Switched to LRB.
c Switched to VSIDS.
c Switched to LRB.
c Switched to VSIDS.
c Switched to LRB.
c Switched to VSIDS.
c Switched to LRB.
c Switched to VSIDS.
c Switched to LRB.
c Switched to VSIDS.
c Switched to LRB.
c Switched to VSIDS.
c Switched to LRB.
c Switched to VSIDS.
c Switched to LRB.
c Switched to VSIDS.
c Switched to LRB.
c Switched to VSIDS.
c ===============================================================================
restarts                  : 12865
conflicts                 : 2820349        (2599 /sec)
decisions                 : 334357170      (0.00 % random) (308127 /sec)
propagations              : 2132761017     (1965450 /sec)
conflict literals         : 52052512       (21.07 % deleted)

conflicts w/ DIP found    : 1697835        (60.20 % of conflicts)
conflicts w/ dangerous DIP: 0              (0.00 % of conflicts)
conflicts w/ DIP-learning : 14             (0.00 % of conflicts)
decisions on ext vars     : 177            (0.00 % of decisions)
total ext vars            : 7           
tried delete ext vars     : 0           
deleted ext vars          : 0           
max ext vars              : 7           

Memory used               : 468.00 MB
CPU time                  : 1085.13 s
DIP computation time      : 17.5357 s (1.62 % of total time)
ER_sel time               : 2.61923 s
ER_add time               : 0.000311 s
ER_delC time              : 0 s
ER_delV time              : 0 s
ER_sub time               : 3.67748 s
ER_stat time              : 0 s

SATISFIABLE
